root_relax = 1890.36
QCR_time = 3.8664
opt = true
obj_val = 1762.0
solved_time = 0.0469
explored_nodes = 405
nb_dom_cuts = 82
Gurobi/QCR_QP_Dom/ax Cut gka1a.txt"
Set parameter Presolve to value 0
Set parameter AggFill to value -1
Set parameter Aggregate to value 0
Set parameter Heuristics to value 0
Set parameter LPWarmStart to value 0
Set parameter NLPHeur to value 0
Set parameter NoRelHeurTime to value 0
Set parameter PreCrush to value 0
Set parameter PreDepRow to value 0
Set parameter PreDual to value 0
Set parameter PrePasses to value -1
Set parameter RINS to value 0
Set parameter Symmetry to value 0
Set parameter PreQLinearize to value 0
Set parameter NonConvex to value 0

Gurobi 12.0.0 (linux64) logging started Sat Jan 11 22:12:41 2025

Set parameter LogFile to value "./res/Gurobi/QCR_QP_Dom/ax Cut gka1a.txt"
Set parameter PreCrush to value 0
Set parameter PrePasses to value -1
Set parameter AggFill to value -1
Set parameter NoRelHeurTime to value 0
Set parameter NLPHeur to value 0
Set parameter NonConvex to value 0
Set parameter LPWarmStart to value 0
Set parameter PreDepRow to value 0
Set parameter Symmetry to value 0
Set parameter Presolve to value 0
Gurobi Optimizer version 12.0.0 build v12.0.0rc1 (linux64 - "Debian GNU/Linux 12 (bookworm)")

CPU model: Intel(R) Xeon(R) Silver 4210R CPU @ 2.40GHz, instruction set [SSE2|AVX|AVX2|AVX512]
Thread count: 1 physical cores, 2 logical processors, using up to 2 threads

Non-default parameters:
TimeLimit  1800
LPWarmStart  0
Heuristics  0
RINS  0
NLPHeur  0
Symmetry  0
Aggregate  0
PreDual  0
NonConvex  0
PreDepRow  0
PreQLinearize  0
Presolve  0

Optimize a model with 82 rows, 50 columns and 316 nonzeros
Model fingerprint: 0xea8974d2
Model has 156 quadratic objective terms
Variable types: 0 continuous, 50 integer (50 binary)
Coefficient statistics:
  Matrix range     [1e+00, 1e+00]
  Objective range  [1e-05, 7e+02]
  QObjective range [2e-05, 8e+02]
  Bounds range     [0e+00, 0e+00]
  RHS range        [1e+00, 5e+00]
Variable types: 0 continuous, 50 integer (50 binary)

Root relaxation: objective -1.890357e+03, 81 iterations, 0.00 seconds (0.00 work units)

    Nodes    |    Current Node    |     Objective Bounds      |     Work
 Expl Unexpl |  Obj  Depth IntInf | Incumbent    BestBd   Gap | It/Node Time

     0     0 -1890.3569    0   50          - -1890.3569      -     -    0s
     0     0 -1890.3569    0   50          - -1890.3569      -     -    0s
     0     2 -1890.3568    0   50          - -1890.3568      -     -    0s
*   39    37              28    -1641.000000 -1888.9021  15.1%   5.6    0s
*   69    41              26    -1762.000000 -1884.5506  6.96%   5.0    0s

Explored 405 nodes (2061 simplex iterations) in 0.05 seconds (0.02 work units)
Thread count was 2 (of 2 available processors)

Solution count 2: -1762 -1641 
No other solutions better than -1762

Optimal solution found (tolerance 1.00e-04)
Best objective -1.762000000000e+03, best bound -1.762000000000e+03, gap 0.0000%

User-callback calls 882, time in user-callback 0.00 sec
